NAME : random1
TYPE : HCP
COMMENT : 
DIMENSION : 700
EDGE_DATA_FORMAT : EDGE_LIST
EDGE_DATA_SECTION
1 8
1 15
2 3
2 6
2 9
2 11
2 16
3 5
3 10
3 11
3 17
4 7
4 11
4 18
5 12
5 19
6 7
6 12
6 13
6 20
7 9
7 10
7 13
7 14
7 21
8 12
8 13
8 22
9 13
9 23
10 24
11 25
12 26
13 27
14 28
15 21
15 23
15 29
16 17
16 19
16 23
16 30
17 19
17 26
17 31
18 32
19 33
20 34
21 35
22 36
23 25
23 37
24 25
24 26
24 38
25 39
26 40
27 41
28 42
29 43
30 44
31 33
31 35
31 36
31 45
32 40
32 46
33 35
33 47
34 37
34 48
35 37
35 49
36 39
36 50
37 41
37 51
38 52
39 41
39 53
40 54
41 55
42 56
43 49
43 55
43 57
44 46
44 49
44 50
44 51
44 58
45 54
45 59
46 47
46 50
46 53
46 60
47 50
47 55
47 61
48 49
48 62
49 52
49 63
50 64
51 54
51 65
52 54
52 55
52 66
53 67
54 68
55 69
56 70
57 61
57 63
57 71
58 62
58 72
59 73
60 64
60 65
60 74
61 75
62 66
62 69
62 76
63 65
63 77
64 67
64 68
64 78
65 79
66 80
67 68
67 69
67 81
68 82
69 83
70 84
71 72
71 73
71 74
71 83
71 85
72 75
72 77
72 86
73 82
73 87
74 88
75 80
75 81
75 89
76 77
76 78
76 83
76 90
77 82
77 91
78 82
78 83
78 92
79 93
80 94
81 95
82 96
83 97
84 98
85 86
85 89
85 90
85 91
85 94
85 95
85 99
86 94
86 100
87 101
88 95
88 102
89 96
89 103
90 104
91 105
92 94
92 106
93 107
94 96
94 108
95 109
96 110
97 111
98 112
99 100
99 109
99 113
100 108
100 114
101 102
101 108
101 110
101 115
102 105
102 107
102 116
103 104
103 111
103 117
104 108
104 111
104 118
105 106
105 119
106 111
106 120
107 121
108 109
108 122
109 123
110 111
110 124
111 125
112 126
113 118
113 125
113 127
114 115
114 119
114 124
114 125
114 128
115 117
115 121
115 122
115 129
116 130
117 119
117 131
118 123
118 132
119 123
119 133
120 121
120 123
120 134
121 135
122 123
122 124
122 136
123 137
124 138
125 139
126 140
127 130
127 141
128 134
128 135
128 136
128 137
128 142
129 134
129 143
130 132
130 135
130 144
131 135
131 145
132 137
132 146
133 147
134 148
135 136
135 149
136 150
137 151
138 152
139 153
140 154
141 143
141 153
141 155
142 148
142 156
143 152
143 157
144 147
144 149
144 152
144 158
145 148
145 151
145 159
146 152
146 160
147 151
147 161
148 150
148 162
149 163
150 164
151 165
152 166
153 167
154 168
155 162
155 164
155 169
156 158
156 162
156 164
156 166
156 170
157 159
157 162
157 167
157 171
158 161
158 172
159 166
159 167
159 173
160 161
160 163
160 164
160 165
160 167
160 174
161 165
161 167
161 175
162 176
163 165
163 166
163 177
164 166
164 178
165 179
166 180
167 181
168 182
169 183
170 171
170 181
170 184
171 174
171 177
171 185
172 181
172 186
173 176
173 180
173 187
174 188
175 189
176 190
177 178
177 191
178 181
178 192
179 193
180 181
180 194
181 195
182 196
183 187
183 197
184 194
184 198
185 191
185 199
186 190
186 193
186 195
186 200
187 188
187 191
187 192
187 194
187 201
188 202
189 203
190 191
190 194
190 204
191 205
192 206
193 195
193 207
194 195
194 208
195 209
196 210
197 211
198 202
198 212
199 200
199 206
199 213
200 202
200 214
201 207
201 208
201 215
202 206
202 216
203 217
204 207
204 218
205 219
206 209
206 220
207 208
207 209
207 221
208 222
209 223
210 224
211 214
211 218
211 225
212 213
212 214
212 221
212 226
213 219
213 220
213 227
214 218
214 223
214 228
215 217
215 222
215 229
216 230
217 231
218 223
218 232
219 223
219 233
220 234
221 235
222 236
223 237
224 238
225 237
225 239
226 227
226 230
226 237
226 240
227 228
227 229
227 236
227 241
228 231
228 235
228 242
229 232
229 243
230 234
230 236
230 244
231 234
231 245
232 233
232 237
232 246
233 247
234 248
235 249
236 250
237 251
238 252
239 241
239 253
240 241
240 246
240 250
240 254
241 247
241 255
242 251
242 256
243 244
243 249
243 250
243 257
244 245
244 249
244 258
245 259
246 250
246 260
247 261
248 251
248 262
249 263
250 264
251 265
252 266
253 254
253 256
253 262
253 267
254 256
254 263
254 268
255 256
255 258
255 269
256 260
256 270
257 259
257 271
258 259
258 272
259 265
259 273
260 274
261 264
261 275
262 276
263 277
264 278
265 279
266 280
267 274
267 275
267 281
268 275
268 282
269 273
269 275
269 277
269 283
270 271
270 275
270 277
270 284
271 273
271 285
272 278
272 286
273 275
273 277
273 278
273 287
274 288
275 289
276 290
277 279
277 291
278 292
279 293
280 294
281 286
281 295
282 283
282 287
282 296
283 284
283 297
284 287
284 288
284 289
284 293
284 298
285 288
285 299
286 290
286 300
287 291
287 301
288 291
288 302
289 291
289 303
290 292
290 293
290 304
291 305
292 306
293 307
294 308
295 297
295 309
296 307
296 310
297 306
297 311
298 312
299 313
300 314
301 304
301 315
302 307
302 316
303 317
304 318
305 319
306 307
306 320
307 321
308 322
309 313
309 317
309 323
310 315
310 324
311 312
311 316
311 317
311 325
312 313
312 319
312 326
313 316
313 318
313 319
313 327
314 316
314 320
314 328
315 317
315 329
316 317
316 321
316 330
317 319
317 320
317 331
318 332
319 320
319 333
320 334
321 335
322 336
323 325
323 327
323 328
323 330
323 331
323 334
323 337
324 327
324 330
324 338
325 339
326 340
327 335
327 341
328 342
329 333
329 343
330 333
330 334
330 335
330 344
331 332
331 334
331 345
332 346
333 347
334 348
335 349
336 350
337 341
337 351
338 339
338 340
338 349
338 352
339 345
339 353
340 347
340 354
341 342
341 343
341 355
342 343
342 347
342 356
343 344
343 347
343 357
344 346
344 358
345 359
346 349
346 360
347 348
347 361
348 362
349 363
350 364
351 358
351 365
352 353
352 356
352 357
352 359
352 366
353 355
353 367
354 357
354 360
354 363
354 368
355 359
355 369
356 358
356 360
356 363
356 370
357 371
358 361
358 372
359 361
359 373
360 363
360 374
361 363
361 375
362 376
363 377
364 378
365 369
365 375
365 376
365 379
366 374
366 380
367 371
367 372
367 381
368 371
368 376
368 382
369 371
369 383
370 384
371 385
372 373
372 376
372 386
373 377
373 387
374 388
375 389
376 377
376 390
377 391
378 392
379 388
379 393
380 383
380 385
380 394
381 383
381 390
381 391
381 395
382 391
382 396
383 386
383 390
383 397
384 398
385 389
385 399
386 390
386 400
387 389
387 401
388 391
388 402
389 390
389 403
390 404
391 405
392 406
393 395
393 399
393 403
393 407
394 396
394 403
394 405
394 408
395 400
395 405
395 409
396 400
396 402
396 403
396 404
396 405
396 410
397 404
397 411
398 400
398 402
398 404
398 412
399 413
400 414
401 405
401 415
402 404
402 416
403 417
404 418
405 419
406 420
407 413
407 421
408 409
408 410
408 422
409 411
409 414
409 423
410 414
410 424
411 415
411 425
412 413
412 418
412 426
413 415
413 427
414 428
415 429
416 430
417 431
418 432
419 433
420 434
421 427
421 435
422 423
422 428
422 430
422 433
422 436
423 425
423 437
424 427
424 429
424 438
425 428
425 431
425 432
425 439
426 440
427 433
427 441
428 442
429 443
430 444
431 433
431 445
432 446
433 447
434 448
435 436
435 437
435 441
435 442
435 449
436 437
436 439
436 441
436 445
436 450
437 442
437 446
437 451
438 452
439 442
439 443
439 453
440 445
440 446
440 454
441 444
441 455
442 456
443 444
443 447
443 457
444 445
444 447
444 458
445 459
446 447
446 460
447 461
448 462
449 452
449 463
450 460
450 464
451 452
451 465
452 455
452 466
453 454
453 457
453 461
453 467
454 461
454 468
455 456
455 469
456 459
456 470
457 471
458 472
459 473
460 474
461 475
462 476
463 470
463 474
463 477
464 475
464 478
465 470
465 474
465 475
465 479
466 480
467 469
467 474
467 475
467 481
468 470
468 471
468 482
469 483
470 484
471 472
471 485
472 486
473 474
473 487
474 475
474 488
475 489
476 490
477 478
477 482
477 485
477 487
477 491
478 479
478 492
479 493
480 494
481 489
481 495
482 496
483 497
484 498
485 499
486 500
487 488
487 489
487 501
488 502
489 503
490 504
491 492
491 498
491 500
491 505
492 493
492 494
492 501
492 502
492 506
493 494
493 497
493 503
493 507
494 508
495 503
495 509
496 497
496 498
496 510
497 511
498 512
499 513
500 502
500 514
501 502
501 515
502 516
503 517
504 518
505 510
505 514
505 515
505 519
506 509
506 520
507 512
507 515
507 521
508 509
508 522
509 516
509 523
510 512
510 516
510 524
511 525
512 513
512 515
512 526
513 515
513 527
514 515
514 528
515 529
516 517
516 530
517 531
518 532
519 533
520 531
520 534
521 525
521 535
522 527
522 531
522 536
523 525
523 526
523 528
523 530
523 531
523 537
524 538
525 528
525 529
525 530
525 539
526 527
526 530
526 540
527 528
527 531
527 541
528 542
529 543
530 544
531 545
532 546
533 547
534 536
534 541
534 545
534 548
535 539
535 549
536 538
536 539
536 540
536 543
536 550
537 545
537 551
538 544
538 545
538 552
539 541
539 553
540 542
540 554
541 544
541 555
542 543
542 556
543 544
543 557
544 558
545 559
546 560
547 549
547 550
547 553
547 554
547 561
548 551
548 552
548 559
548 562
549 555
549 556
549 557
549 558
549 563
550 551
550 554
550 557
550 564
551 558
551 565
552 556
552 566
553 554
553 567
554 556
554 568
555 559
555 569
556 570
557 559
557 571
558 572
559 573
560 574
561 571
561 573
561 575
562 566
562 568
562 570
562 576
563 566
563 569
563 577
564 578
565 566
565 569
565 579
566 571
566 580
567 581
568 582
569 583
570 571
570 573
570 584
571 573
571 585
572 586
573 587
574 588
575 580
575 581
575 583
575 589
576 578
576 581
576 587
576 590
577 580
577 582
577 585
577 587
577 591
578 579
578 583
578 592
579 581
579 583
579 593
580 584
580 585
580 594
581 595
582 584
582 596
583 587
583 597
584 587
584 598
585 599
586 600
587 601
588 602
589 603
590 591
590 599
590 604
591 595
591 605
592 606
593 597
593 600
593 607
594 601
594 608
595 597
595 601
595 609
596 600
596 601
596 610
597 600
597 601
597 611
598 599
598 612
599 613
600 614
601 615
602 616
603 609
603 611
603 614
603 617
604 609
604 614
604 618
605 611
605 619
606 608
606 610
606 620
607 608
607 621
608 611
608 612
608 614
608 622
609 611
609 612
609 623
610 612
610 615
610 624
611 625
612 613
612 626
613 614
613 627
614 615
614 628
615 629
616 630
617 622
617 631
618 626
618 632
619 627
619 628
619 629
619 633
620 622
620 624
620 626
620 634
621 627
621 628
621 635
622 625
622 636
623 628
623 637
624 626
624 627
624 638
625 628
625 639
626 640
627 628
627 641
628 642
629 643
630 644
631 634
631 638
631 639
631 645
632 634
632 638
632 646
633 647
634 641
634 648
635 641
635 649
636 639
636 642
636 643
636 650
637 642
637 651
638 643
638 652
639 653
640 654
641 655
642 656
643 657
644 658
645 647
645 652
645 659
646 649
646 650
646 655
646 660
647 651
647 655
647 661
648 649
648 651
648 654
648 656
648 662
649 655
649 663
650 652
650 654
650 657
650 664
651 665
652 666
653 667
654 657
654 668
655 669
656 670
657 671
658 672
659 665
659 669
659 673
660 662
660 670
660 671
660 674
661 667
661 675
662 663
662 669
662 670
662 676
663 664
663 667
663 677
664 667
664 678
665 679
666 668
666 680
667 681
668 682
669 671
669 683
670 684
671 685
672 686
673 674
673 680
673 684
673 687
674 680
674 688
675 676
675 681
675 683
675 689
676 681
676 685
676 690
677 681
677 691
678 692
679 680
679 681
679 682
679 693
680 694
681 683
681 695
682 685
682 696
683 685
683 697
684 698
685 699
686 700
687 688
689 690
691 692
693 694
695 696
697 698
699 700
-1
EOF
